CMD:
./solvers/bin/cadical --plain --no-reduce -t 1600 ./data/cnfs//intel045/intel045.34.cnf

c --- [ banner ] -------------------------------------------------------------
c 
c CaDiCaL SAT Solver
c Copyright (c) 2016-2024
c A. Biere, M. Fleury, N. Froleyks, K. Fazekas, F. Pollitt, T. Faller
c JKU Linz, University of Freiburg, TU Wien
c 
c Version 2.1.3 5296d3d2a9bf48c154ab2acb5e44625776d821bf
c g++ (Gentoo 12.3.1_p20230526 p2) 12.3.1 20230526 -Wall -Wextra -O3 -DNDEBUG
c Sat Aug 9 07:26:21 PDT 2025 Linux cedar2.int.cedar.computecanada.ca 5.14.0-362.24.2.el9_3.x86_64 x86_64
c 
c --- [ limit ] --------------------------------------------------------------
c 
c setting time limit to 1600 seconds real time (due to '-t 1600')
c 
c --- [ parsing input ] ------------------------------------------------------
c 
c reading DIMACS file from './data/cnfs//intel045/intel045.34.cnf'
c opening file to read './data/cnfs//intel045/intel045.34.cnf'
c found 'p cnf 227272 613007' header
c parsed 613007 clauses in 0.10 seconds process time
c 
c --- [ options ] ------------------------------------------------------------
c 
c   --compact=false                (different from default 'true')
c   --decompose=false              (different from default 'true')
c   --deduplicate=false            (different from default 'true')
c   --elim=false                   (different from default 'true')
c   --probe=false                  (different from default 'true')
c   --reduce=false                 (different from default 'true')
c   --subsume=false                (different from default 'true')
c   --ternary=false                (different from default 'true')
c   --transred=false               (different from default 'true')
c   --vivify=false                 (different from default 'true')
c 
c --- [ solving ] ------------------------------------------------------------
c 
c time measured in process time since initialization
c 
c  seconds   reductions  redundant  irredundant
c          MB    restarts       trail       variables
c           level   conflicts       glue          remaining
c 
c *  0.10 101  0 0   0    0    0  0% 0 608584 158278 70%
c {  0.10 102  0 0   0    0    0  0% 0 608584 158278 70%
c i  0.11 102 611 0   0   20   18 35% 3 608584 158277 70%
c i  0.11 102 628 0   0   21   18 35% 3 608584 158276 70%
c i  0.11 102 780 0   0   35   28 36% 2 608584 158166 70%
c i  0.13 102 402 0   4  184  173 35% 2 608584 158056 70%
c i  0.15 103 270 0  25  331  310 37% 3 608584 158055 70%
c i  0.15 103 275 0  25  332  310 37% 3 608584 158054 70%
c i  0.15 103 285 0  25  334  311 37% 2 608584 158053 70%
c i  0.15 103 291 0  25  335  311 37% 2 608584 158052 70%
c i  0.15 103 303 0  25  337  312 37% 2 608584 158051 70%
c i  0.15 103 310 0  25  338  312 37% 2 608584 158050 70%
c i  0.16 103 338 0  25  344  317 38% 2 608584 158049 70%
c i  0.16 103 345 0  25  345  317 38% 2 608584 158048 70%
c i  0.16 103 361 0  25  347  318 38% 2 608584 158047 70%
c i  0.16 103 369 0  25  348  318 38% 2 608584 158046 70%
c i  0.16 103 386 0  25  350  319 38% 2 608584 158045 70%
c i  0.16 103 395 0  25  351  319 38% 2 608584 158044 70%
c i  0.16 103 432 0  25  355  322 38% 2 608584 158043 70%
c i  0.16 103 441 0  25  356  322 39% 2 608584 158042 70%
c 
c  seconds    reductions  redundant  irredundant
c          MB     restarts       trail       variables
c            level   conflicts       glue          remaining
c 
c i  0.16 103 481 0  25  360  325 39% 2 608584 158041 70%
c i  0.16 103 491 0  25  361  325 39% 2 608584 158040 70%
c i  0.17 103 467 0  31  413  370 39% 3 608584 157902 69%
c i  0.18 103 416 0  41  476  430 39% 3 608584 157810 69%
c i  0.19 103 360 0  52  580  525 39% 3 608584 157732 69%
c i  0.19 103 359 0  52  581  525 39% 3 608584 157705 69%
c i  0.24 103 353 0  79  689  628 39% 3 608584 157554 69%
c i  0.24 103 343 0  84  709  647 39% 3 608584 157468 69%
c i  0.24 103 313 0  84  791  713 39% 3 608584 157440 69%
c i  0.25 103 279 0  84  893  801 38% 3 608584 157406 69%
c }  0.25 103 259 0  85 1000  886 38% 3 608584 157406 69%
c [  0.25 103  0 0  85 1000  886  0% 0 608584 157406 69%
c O  0.26 103 781 0  85 1002  888 39% 1 608584 157406 69%
c ]  0.44 104 5000 0  86 3002 2719 61% 12 608584 157406 69%
c {  0.44 104 259 0  86 3002 2719 38% 3 608584 157406 69%
c F  0.44 104 259 0  86 3003 2720 38% 3 608584 157406 69%
c i  0.48 104 217 0 167 3321 3005 37% 3 608584 157369 69%
c i  0.52 105 196 0 194 3649 3290 37% 3 608584 157288 69%
c i  0.54 105 196 0 207 3757 3387 38% 3 608584 157243 69%
c i  0.63 105 172 0 295 4491 4022 38% 3 608584 157221 69%
c 
c  seconds    reductions  redundant  irredundant
c          MB     restarts       trail       variables
c            level   conflicts       glue          remaining
c 
c i  0.68 105 164 0 351 4833 4319 38% 3 608584 157171 69%
c i  0.69 105 162 0 361 4873 4354 37% 3 608584 157149 69%
c i  0.74 105 156 0 416 5155 4598 38% 3 608584 156949 69%
c i  0.84 105 146 0 522 5781 5149 38% 4 608584 156895 69%
... skipped 129 lines ...
c i  8.25 127 79 0 3804 65503 54421 38% 5 399291 154242 68%
c B  8.35 127 78 0 3926 66019 54891 38% 5 399291 154242 68%
c i  8.75 127 78 0 4293 68854 57337 38% 5 399291 154230 68%
c i  8.76 127 78 0 4298 68873 57354 38% 5 399291 154227 68%
c i  8.92 127 77 0 4485 69671 58083 38% 6 399291 154211 68%
c i  8.95 127 77 0 4526 69828 58227 38% 6 399291 154209 68%
c i  8.98 127 77 0 4569 70040 58415 38% 6 399291 154177 68%
c i  9.25 127 76 0 4869 71354 59611 38% 6 399291 154173 68%
c i  9.93 127 72 0 5686 74947 62816 38% 6 399291 154152 68%
c i 10.10 127 71 0 5847 76257 63932 38% 6 399291 154137 68%
c W 10.41 130 71 0 5919 78021 65097 38% 6 398523 154136 68%
c i 10.49 130 70 0 6013 78459 65485 38% 6 398523 154105 68%
c 
c  seconds   reductions     redundant  irredundant
c          MB    restarts          trail       variables
c           level     conflicts        glue          remaining
c 
c i 10.55 130 70 0 6096 78784 65772 38% 6 398523 154101 68%
c i 10.56 130 70 0 6115 78973 65927 38% 6 398523 154066 68%
c i 10.87 130 68 0 6410 80894 67562 38% 6 398523 154046 68%
c i 10.89 130 68 0 6439 81035 67688 38% 6 398523 153999 68%
c i 11.13 130 67 0 6610 82698 69045 38% 6 398523 153983 68%
c i 11.31 130 67 0 6763 83853 70029 38% 6 398523 153942 68%
c i 12.10 130 66 0 7213 88918 74382 38% 6 398523 153914 68%
c # 12.37 130 65 0 7343 91022 76145 38% 6 398523 153914 68%
c i 12.56 130 65 0 7451 92204 77199 38% 6 398523 153897 68%
c i 12.56 130 65 0 7451 92211 77205 38% 6 398523 153839 68%
c i 12.65 130 64 0 7539 92602 77531 38% 6 398523 153817 68%
c i 12.97 130 63 0 7823 94712 79381 38% 6 398523 153783 68%
c i 13.02 130 63 0 7870 95046 79679 38% 6 398523 153747 68%
c i 13.02 130 63 0 7871 95052 79682 38% 6 398523 153670 68%
c i 13.02 130 63 0 7871 95056 79684 38% 6 398523 153641 68%
c i 13.17 130 63 0 8002 95928 80452 38% 6 398523 153518 68%
c i 13.19 130 63 0 8026 96030 80543 38% 6 398523 153371 67%
c i 13.42 130 62 0 8275 97427 81702 38% 6 398523 153292 67%
c i 13.54 130 62 0 8327 98332 82495 38% 6 398523 153197 67%
c i 13.80 130 60 0 8602 100040 83837 38% 6 398523 152909 67%
c 
c  seconds   reductions      redundant  irredundant
c          MB    restarts           trail       variables
c           level     conflicts         glue          remaining
c 
c i 13.80 130 60 0 8602 100122 83893 38% 6 398523 151243 67%
c i 13.81 130 60 0 8602 100137 83905 38% 6 398523 151198 67%
c } 13.81 130 60 0 8602 100141 83907 38% 6 398523 148320 65%
c 0 13.81 130 60 0 8602 100141 83907 38% 6 398523 148320 65%
c 
c --- [ result ] -------------------------------------------------------------
c 
s UNSATISFIABLE
c 
c --- [ run-time profiling ] -------------------------------------------------
c 
c process time taken by individual solving procedures
c (percentage relative to process time for solving)
c 
c        13.71  100.00% search
c         9.14   66.65% unstable
c         4.20   30.68% stable
c         0.36    2.64% walk
c         0.10    0.73% parse
c         0.00    0.02% lucky
c         0.00    0.00% simplify
c   =================================
c        13.71   99.27% solve
c 
c last line shows process time for solving
c (percentage relative to total process time)
c 
c --- [ statistics ] ---------------------------------------------------------
c 
c chronological:             43055        42.99 %  of conflicts
c conflicts:                100141      7306.38    per second
c decisions:                837196     61082.63    per second
c fixed:                     78952        34.74 %  of all variables
c learned:                   95468        95.33 %  per conflict
c learned_lits:            3383300       100.00 %  learned literals
c minimized:                     0         0.00 %  learned literals
c shrunken:                1056983        31.24 %  learned literals
c minishrunken:             412163        12.18 %  learned literals
c otfs:                        953         0.95 %  of conflict
c propagations:          251688333        18.36 M  per second
c rephased:                     13      7703.15    interval
c restarts:                   8602        11.64    interval
c stabilizing:                   3        41.90 %  of conflicts
c subsumed:                  10028         1.42 %  of all clauses
c strengthened:                890         0.13 %  of all clauses
c walked:                        3     33380.33    interval
c 
c seconds are measured in process time for solving
c 
c --- [ resources ] ----------------------------------------------------------
c 
c total process time since initialization:        13.81    seconds
c total real time since initialization:           15.43    seconds
c maximum resident set size of process:          147.88    MB
c 
c --- [ shutting down ] ------------------------------------------------------
c 
c exit 20
